Normalized Data/p02_3_normalized_splitx10_0.vrp
NAME:p02_3_NORMALIZED_splitx10_
BEST_KNOWN: 0
COMMENT: 0
DIMENSION: 304
CAPACITY: 1000
EDGE_WEIGHT_FORMAT: FUNCTION
EDGE_WEIGHT_TYPE: EXACT_2D
NODE_COORD_SECTION
1 0.00000 0.00000
2 19 49
3 19 49
4 19 49
5 19 49
6 -36 21
7 -36 21
8 -36 21
9 -36 21
10 -24 5
11 -24 5
12 -24 5
13 -19 20
14 -19 20
15 -19 20
16 -19 20
17 -18 -40
18 -18 -40
19 -18 -40
20 -18 -40
21 -18 -40
22 -49 -40
23 -49 -40
24 -49 -40
25 -49 -40
26 -49 -40
27 -25 -39
28 -25 -39
29 -25 -39
30 -46 -41
31 -46 -41
32 -46 -41
33 39 15
34 39 15
35 39 15
36 39 15
37 39 15
38 -7 -37
39 -7 -37
40 -7 -37
41 -31 -20
42 -31 -20
43 -31 -20
44 -31 -20
45 0 -37
46 0 -37
47 0 -37
48 0 -37
49 0 -37
50 -44 -39
51 -44 -39
52 -44 -39
53 -44 -39
54 -44 -39
55 -44 -39
56 -2 8
57 -2 8
58 -2 8
59 -2 8
60 -2 8
61 -2 8
62 -2 8
63 -46 21
64 -46 21
65 -46 21
66 -3 -15
67 -3 -15
68 -19 -48
69 -19 -48
70 -19 -48
71 -19 -48
72 -19 -48
73 16 33
74 16 33
75 16 33
76 16 33
77 16 33
78 -41 27
79 -41 27
80 -41 27
81 -41 27
82 -41 27
83 7 -26
84 7 -26
85 7 -26
86 7 -26
87 -38 50
88 -38 50
89 -42 44
90 -42 44
91 -42 44
92 -42 44
93 -9 7
94 -46 -37
95 -46 -37
96 -46 -37
97 -46 -37
98 -46 -37
99 27 -47
100 27 -47
101 27 -47
102 27 -47
103 27 -47
104 -13 -27
105 -13 -27
106 -13 -27
107 -11 -30
108 -11 -30
109 -11 -30
110 -11 -30
111 -11 -30
112 -26 -38
113 -26 -38
114 -26 -38
115 -26 -38
116 -9 -17
117 -9 -17
118 -9 -17
119 -9 -17
120 -9 -17
121 -6 5
122 -6 5
123 11 10
124 11 10
125 11 10
126 11 10
127 11 10
128 46 -44
129 46 -44
130 46 -44
131 6 -10
132 6 -10
133 6 -10
134 6 -10
135 -18 -29
136 -18 -29
137 47 2
138 28 -22
139 28 -22
140 28 -22
141 28 -22
142 28 -22
143 28 -22
144 -2 -12
145 -37 2
146 -37 2
147 -37 2
148 46 -33
149 46 -33
150 46 -33
151 46 -33
152 46 -33
153 46 -33
154 46 -33
155 -46 6
156 -46 6
157 -46 6
158 -46 6
159 -46 6
160 -46 6
161 -20 44
162 -20 44
163 -20 44
164 -20 44
165 -9 -41
166 -9 -41
167 -9 -41
168 -9 -41
169 -9 -41
170 -9 -41
171 -42 48
172 -42 48
173 -42 48
174 -42 48
175 -37 13
176 -37 13
177 -37 13
178 -37 13
179 -37 13
180 35 -32
181 35 -32
182 35 -32
183 35 -32
184 35 -32
185 34 -17
186 34 -17
187 34 -17
188 34 -17
189 34 -17
190 34 -17
191 -30 6
192 -30 6
193 -30 6
194 21 -9
195 21 -9
196 21 -9
197 21 -9
198 2 41
199 2 41
200 2 41
201 -32 21
202 -32 21
203 -32 21
204 -32 21
205 -32 21
206 -32 21
207 -41 32
208 -41 32
209 -41 32
210 -41 32
211 -41 32
212 -1 -26
213 -1 -26
214 -1 -26
215 -1 -26
216 -16 5
217 -16 5
218 -16 5
219 22 -27
220 22 -27
221 22 -27
222 22 -27
223 22 -27
224 -21 -34
225 -21 -34
226 -21 -34
227 -21 -34
228 -21 -34
229 -21 -34
230 -40 -13
231 -40 -13
232 -40 -13
233 -40 -13
234 13 0
235 13 0
236 13 0
237 13 0
238 13 0
239 36 22
240 36 22
241 36 22
242 36 22
243 36 22
244 -10 -8
245 -10 -8
246 -10 -8
247 -15 43
248 -15 43
249 -15 43
250 -15 43
251 -15 43
252 45 43
253 45 43
254 -3 -43
255 -3 -43
256 -3 -43
257 -3 -43
258 -3 -43
259 -4 8
260 -4 8
261 -4 8
262 -4 8
263 -4 8
264 -25 -18
265 -13 -15
266 -13 -15
267 9 -37
268 9 -37
269 9 -37
270 -50 -36
271 -50 -36
272 -50 -36
273 -50 -36
274 16 -34
275 16 -34
276 -37 28
277 -37 28
278 -37 28
279 22 14
280 22 14
281 22 14
282 22 14
283 27 27
284 27 27
285 27 27
286 12 32
287 12 32
288 12 32
289 12 32
290 12 32
291 23 10
292 23 10
293 23 10
294 23 10
295 23 10
296 24 7
297 24 7
298 24 7
299 24 7
300 24 7
301 24 7
302 0 30
303 0 30
304 0 30
DEMAND_SECTION
1 0
2 100
3 10
4 10
5 10
6 200
7 50
8 10
9 10
10 200
11 100
12 50
13 200
14 100
15 10
16 10
17 200
18 50
19 10
20 10
21 10
22 200
23 200
24 50
25 10
26 10
27 200
28 100
29 50
30 200
31 100
32 10
33 200
34 200
35 10
36 10
37 10
38 200
39 50
40 10
41 200
42 10
43 10
44 10
45 100
46 50
47 10
48 10
49 10
50 200
51 200
52 50
53 10
54 10
55 10
56 200
57 200
58 50
59 10
60 10
61 10
62 10
63 200
64 10
65 10
66 200
67 200
68 100
69 50
70 10
71 10
72 10
73 100
74 50
75 10
76 10
77 10
78 200
79 10
80 10
81 10
82 10
83 100
84 10
85 10
86 10
87 200
88 50
89 200
90 200
91 50
92 10
93 200
94 200
95 100
96 50
97 10
98 10
99 200
100 10
101 10
102 10
103 10
104 200
105 200
106 50
107 100
108 10
109 10
110 10
111 10
112 200
113 50
114 10
115 10
116 200
117 200
118 10
119 10
120 10
121 200
122 100
123 200
124 200
125 50
126 10
127 10
128 100
129 50
130 10
131 100
132 50
133 10
134 10
135 200
136 100
137 200
138 200
139 50
140 10
141 10
142 10
143 10
144 200
145 200
146 100
147 50
148 200
149 100
150 50
151 10
152 10
153 10
154 10
155 200
156 100
157 50
158 10
159 10
160 10
161 200
162 200
163 10
164 10
165 200
166 50
167 10
168 10
169 10
170 10
171 200
172 50
173 10
174 10
175 200
176 50
177 10
178 10
179 10
180 200
181 100
182 10
183 10
184 10
185 200
186 200
187 50
188 10
189 10
190 10
191 200
192 50
193 10
194 200
195 200
196 10
197 10
198 200
199 100
200 50
201 200
202 100
203 10
204 10
205 10
206 10
207 200
208 200
209 50
210 10
211 10
212 200
213 100
214 50
215 10
216 200
217 200
218 50
219 200
220 10
221 10
222 10
223 10
224 200
225 200
226 50
227 10
228 10
229 10
230 200
231 100
232 50
233 10
234 200
235 200
236 50
237 10
238 10
239 100
240 50
241 10
242 10
243 10
244 200
245 100
246 10
247 200
248 100
249 10
250 10
251 10
252 200
253 50
254 200
255 100
256 50
257 10
258 10
259 200
260 200
261 50
262 10
263 10
264 200
265 200
266 10
267 200
268 200
269 50
270 100
271 10
272 10
273 10
274 200
275 50
276 200
277 200
278 10
279 200
280 200
281 10
282 10
283 200
284 100
285 10
286 200
287 50
288 10
289 10
290 10
291 200
292 200
293 50
294 10
295 10
296 200
297 50
298 10
299 10
300 10
301 10
302 200
303 100
304 10
DEPOT_SECTION
1
-1
EOF