Normalized Data/p02_3_normalized_splitx10_0.sol
303 -6 5 7 8 277 276 275 201 204 200 -11 9 10 217 216 215 92 -13 178 174 175 155 156 154 158 157 159 192 190 191 -14 15 12 162 163 160 161 247 246 248 250 249 -17 18 20 19 16 68 71 69 70 67 165 164 167 166 168 169 214 211 -31 30 29 50 51 53 52 54 49 263 -39 38 37 254 255 257 253 256 48 45 46 44 47 212 213 -43 41 40 42 230 229 231 232 145 146 144 -61 58 60 59 56 57 55 123 126 122 124 125 -66 65 143 -73 288 286 285 287 289 199 197 198 303 301 302 -74 75 72 76 4 2 3 1 252 251 242 241 240 239 238 282 283 284 -83 85 82 84 266 267 268 98 273 -86 87 171 170 172 173 89 91 88 90 -95 94 97 93 96 22 24 25 21 23 271 269 270 272 -105 103 104 135 134 227 224 107 109 108 110 -106 28 27 26 111 112 113 114 228 225 226 223 -117 118 119 115 116 264 265 245 243 244 -121 120 260 259 262 258 261 -131 132 133 130 195 194 193 196 233 234 -139 182 181 180 183 179 152 147 151 148 150 153 149 129 127 128 102 100 99 101 274 -177 176 63 64 62 81 80 78 79 77 206 209 210 208 207 202 205 203 -186 188 187 189 185 184 140 138 141 142 137 218 220 221 219 222 -237 236 235 136 33 34 35 32 36 295 296 297 300 298 299 -280 279 281 278 294 290 291 292 293 0 





OBJ=
2266.509
BEST_KNOWN=
0.000